124
10000000
1538756
776789
1324696
1126890
2159168
1321770
1059639
1711782
1495618
2107382
1534586
79995
354695
1058504
1855898
321212
1362698
349925
1114476
800056
1885615
459601
554129
67492
1565052
1659355
560893
442257
1433990
2149456
1903012
1836585
1987263
1789093
2069211
319628
558375
934822
1919317
1036684
1616570
320721
197267
1202887
482219
2385271
720121
362234
2047283
2478137
1215803
2426582
2019236
1067952
905193
2246133
1196721
1809722
357024
490245
434614
397844
743710
2298342
2405911
1143199
284170
1126853
946642
748965
2329603
1771818
2199448
1178234
1259860
1462279
1503951
751975
988252
2492875
528141
177
1373153
1080975
2035561
2134071
1246413
2487803
183774
1265910
1094770
173210
41594
450032
951731
1559110
1125890
452387
312519
1185404
157907
1561843
1453408
958700
1030591
1512374
246885
2178242
1548659
1635433
671277
1918255
2001120
457183
100862
274457
1686869
583463
777873
1234341
2213177
2286910
1135975
2089340
